c uprop, v00.0, 
c reading from data/prog31.c.cnf
c done reading: 0.002942
p cnf 87 311
-41 -45 0
-45 -46 0
41 45 46 0
41 46 -52 0
-41 -46 -52 0
-41 46 52 0
41 -46 52 0
45 -54 0
-54 -55 0
-45 54 55 0
-45 55 -59 0
45 -55 -59 0
45 55 59 0
-45 -55 59 0
54 -63 0
-54 63 0
-54 -68 0
54 68 0
63 -71 0
-63 71 0
-43 -63 0
43 63 0
-48 71 0
48 -71 0
-56 -71 0
56 71 0
-38 48 0
38 -48 0
-35 -48 0
35 48 0
-33 38 0
33 -38 0
-31 -38 0
31 38 0
-29 46 0
-29 41 0
29 -41 -46 0
-27 -41 -46 0
-27 41 46 0
27 41 -46 0
27 -41 46 0
25 -46 -55 0
25 -29 -55 0
25 -29 -46 0
-25 46 55 0
-25 29 55 0
-25 29 46 0
-23 -25 55 0
-23 -25 46 0
-23 -25 29 0
23 25 -55 0
23 25 -46 0
23 25 -29 0
23 -29 -46 -55 0
-23 29 46 55 0
21 -25 -55 0
-21 55 0
-21 25 0
-21 25 55 0
-19 -21 0
-19 -21 55 0
-19 -21 25 0
19 21 -55 0
19 21 -25 0
-19 25 55 0
17 -21 0
-17 21 0
23 -51 0
41 -51 0
-23 -41 51 0
-23 -41 -53 0
23 41 -53 0
-23 41 53 0
23 -41 53 0
-19 -46 58 0
-19 -51 58 0
-46 -51 58 0
19 46 -58 0
19 51 -58 0
46 51 -58 0
19 -58 -61 0
46 -58 -61 0
51 -58 -61 0
-19 58 61 0
-46 58 61 0
-51 58 61 0
-19 -46 -51 61 0
19 46 51 -61 0
-17 -55 66 0
-17 -58 66 0
-55 -58 66 0
17 55 -66 0
17 58 -66 0
55 58 -66 0
17 -66 -74 0
55 -66 -74 0
58 -66 -74 0
-17 66 74 0
-55 66 74 0
-58 66 74 0
-17 -55 -58 74 0
17 55 58 -74 0
-66 75 0
66 -75 0
61 -78 0
41 -78 0
-41 -61 78 0
-41 -61 -79 0
41 61 -79 0
41 -61 79 0
-41 61 79 0
-46 -74 81 0
-74 -78 81 0
-46 -78 81 0
46 74 -81 0
74 78 -81 0
46 78 -81 0
74 -81 -82 0
46 -81 -82 0
78 -81 -82 0
-74 81 82 0
-46 81 82 0
-78 81 82 0
-46 -74 -78 82 0
46 74 78 -82 0
-55 -75 0
-75 -81 0
-55 -81 0
-75 83 0
-55 83 0
-81 83 0
-55 -75 -81 83 0
55 75 81 -83 0
-41 -60 0
-27 -60 0
27 41 60 0
27 41 -65 0
-27 -41 -65 0
27 -41 65 0
-27 41 65 0
60 -69 0
-53 -69 0
53 -60 69 0
53 -60 -73 0
-53 60 -73 0
53 60 73 0
-53 -60 73 0
-44 69 0
-44 -79 0
44 -69 79 0
-50 -69 79 0
-50 69 -79 0
50 69 79 0
50 -69 -79 0
44 -57 0
-57 -82 0
-44 57 82 0
-40 -44 82 0
-40 44 -82 0
40 44 82 0
40 -44 -82 0
-36 57 0
-36 -83 0
36 -57 83 0
-34 -57 83 0
-34 57 -83 0
34 57 83 0
34 -57 -83 0
-32 36 0
32 -36 0
-30 -36 0
30 36 0
-28 32 0
28 -32 0
-26 -32 0
26 32 0
-24 28 0
24 -28 0
-22 -28 0
22 28 0
-20 24 0
20 -24 0
-24 -84 0
24 84 0
-18 20 0
18 -20 0
-20 -85 0
20 85 0
18 -86 0
-18 86 0
-18 -87 0
18 87 0
-15 -76 0
15 76 0
-14 76 0
14 -76 0
13 -76 0
-13 76 0
12 -13 0
-12 13 0
-11 -12 13 0
-11 -12 0
11 12 -13 0
11 12 0
10 -12 -76 0
-10 76 0
-10 12 0
-10 12 76 0
-9 -10 0
-9 -10 76 0
-9 -10 12 0
9 10 -76 0
9 10 -12 0
-9 12 76 0
8 -10 0
-8 10 0
11 -62 0
-11 62 0
-9 67 0
9 -67 0
9 -67 -70 0
-67 -70 0
-9 67 70 0
67 70 0
-8 42 -76 0
-8 42 -67 0
42 -67 -76 0
8 -42 76 0
8 -42 67 0
-42 67 76 0
8 -42 -47 0
-42 -47 76 0
-42 -47 67 0
-8 42 47 0
42 47 -76 0
42 47 -67 0
-8 47 -67 -76 0
8 -47 67 76 0
37 -42 0
-37 42 0
-7 70 0
7 -70 0
16 -47 0
-16 47 0
-6 -16 47 0
-6 -16 0
6 16 -47 0
6 16 0
-37 -76 0
-16 -37 0
-16 -76 0
5 -37 0
5 -76 0
5 -16 0
5 -16 -37 -76 0
-5 16 37 76 0
-4 -14 0
4 14 0
-3 -62 0
3 62 0
-2 -7 0
2 7 0
-6 -77 0
6 77 0
-5 -80 0
5 80 0
-1 41 0
-1 14 0
1 -14 -41 0
14 -41 0
-14 41 0
-27 64 0
-1 -27 64 0
-1 64 0
1 27 -64 0
27 -64 0
1 -64 0
-53 -62 72 0
-53 -64 72 0
-62 -64 72 0
53 62 -72 0
53 64 -72 0
62 64 -72 0
53 -72 0
62 -72 0
64 -72 0
53 62 64 0
-7 49 -79 0
49 -72 -79 0
-7 49 -72 0
7 -49 79 0
-49 72 79 0
7 -49 72 0
-49 79 0
7 -49 0
-49 72 0
7 72 79 0
-6 39 -82 0
39 -49 -82 0
-6 39 -49 0
6 -39 82 0
-39 49 82 0
6 -39 49 0
-39 82 0
6 -39 0
-39 49 0
6 49 82 0
-5 -83 0
-39 -83 0
-5 -39 0
5 39 83 0
